\ENCODING=ISO-8859-1
\Problem name: mockup5

Minimize
 obj1: 4727 x(1,2) + 1204 x(1,3) + 6363 x(1,4) + 3657 x(1,5) + 3587 x(2,3)
       + 2012 x(2,4) + 1841 x(2,5) + 5162 x(3,4) + 2458 x(3,5) + 2799 x(4,5)
Subject To
 constraint(1): x(1,2) + x(1,3) + x(1,4) + x(1,5)  = 2
 constraint(2): x(1,2) + x(2,3) + x(2,4) + x(2,5)  = 2
 constraint(3): x(1,3) + x(2,3) + x(3,4) + x(3,5)  = 2
 constraint(4): x(1,4) + x(2,4) + x(3,4) + x(4,5)  = 2
 constraint(5): x(1,5) + x(2,5) + x(3,5) + x(4,5)  = 2
Bounds
 0 <= x(1,2) <= 1
 0 <= x(1,3) <= 1
 0 <= x(1,4) <= 1
 0 <= x(1,5) <= 1
 0 <= x(2,3) <= 1
 0 <= x(2,4) <= 1
 0 <= x(2,5) <= 1
 0 <= x(3,4) <= 1
 0 <= x(3,5) <= 1
 0 <= x(4,5) <= 1
Binaries
 x(1,2)  x(1,3)  x(1,4)  x(1,5)  x(2,3)  x(2,4)  x(2,5)  x(3,4)  x(3,5) 
 x(4,5) 
End
